
Welcome to IBM(R) ILOG(R) CPLEX(R) Interactive Optimizer 12.7.1.0
  with Simplex, Mixed Integer & Barrier Optimizers
5725-A06 5725-A29 5724-Y48 5724-Y49 5724-Y54 5724-Y55 5655-Y21
Copyright IBM Corp. 1988, 2017.  All Rights Reserved.

Type 'help' for a list of available commands.
Type 'help' followed by a command name for more
information on commands.

CPLEX> New value for default parallel thread count: 1
CPLEX> New value for time limit in seconds: 3600
CPLEX> Problem 'eil76_m25.lp' read.
Read time = 0.15 sec. (15.74 ticks)
CPLEX> CPXPARAM_TimeLimit                               3600
CPXPARAM_Threads                                 1
CPXPARAM_Read_APIEncoding                        "UTF-8"
Tried aggregator 1 time.
MIP Presolve modified 146250 coefficients.
Reduced MIP has 7650 rows, 142576 columns, and 855175 nonzeros.
Reduced MIP has 142500 binaries, 75 generals, 0 SOSs, and 0 indicators.
Presolve time = 0.48 sec. (636.38 ticks)
Tried aggregator 1 time.
Reduced MIP has 7650 rows, 142576 columns, and 855175 nonzeros.
Reduced MIP has 142500 binaries, 76 generals, 0 SOSs, and 0 indicators.
Presolve time = 0.54 sec. (448.51 ticks)
Probing time = 0.15 sec. (68.47 ticks)
Clique table members: 279974.
MIP emphasis: balance optimality and feasibility.
MIP search method: dynamic search.
Parallel mode: none, using 1 thread.
Root relaxation solution time = 23.50 sec. (37995.53 ticks)

        Nodes                                         Cuts/
   Node  Left     Objective  IInf  Best Integer    Best Bound    ItCnt     Gap

      0     0       43.4863   266                     43.4863    33271         
      0     0       44.7016   237                    Cuts: 57    55024         
      0     0       45.0000   402                   Cuts: 112    87711         
      0     0       45.0000   369                    Cuts: 74   108273         
      0     0       45.0000   464                    Cuts: 74   126324         
      0     0       45.0000   344                    Cuts: 17   138430         
      0     0       45.0000   381                    Cuts: 88   149100         
Heuristic still looking.
Heuristic still looking.
      0     2       45.0000   251                     45.0000   149100         
Elapsed time = 421.04 sec. (683134.04 ticks, tree = 0.01 MB, solutions = 0)
      1     3       45.0000   275                     45.0000   162573         
      2     4       45.0000   265                     45.0000   163847         
      3     5       45.0000   324                     45.0000   170327         
      4     6       45.0000   294                     45.0000   174606         
      5     7       45.0000   305                     45.0000   184532         
      6     8       45.0000   301                     45.0000   189812         
      7     9       45.0000   265                     45.0000   190410         
      8    10       45.0000   282                     45.0000   195746         
      9    11       45.0000   304                     45.0000   202559         
     10    12       45.0000   285                     45.0000   202876         
Elapsed time = 523.71 sec. (861116.73 ticks, tree = 1.26 MB, solutions = 0)
     11    13       45.0000   297                     45.0000   204234         
     12    14       47.0000   328                     45.0000   216677         
     13    15       45.0000   318                     45.0000   227166         
     15    17       45.0000   270                     45.0000   230269         
     17    19       45.0000   333                     45.0000   231814         
     18    20       45.0000   276                     45.0000   233456         
     20    22       45.0000   267                     45.0000   234077         
     21    23       45.0000   312                     45.0000   234639         
     22    24       45.0000   273                     45.0000   238122         
     23    25       45.0000   266                     45.0000   241213         
Elapsed time = 575.45 sec. (951472.29 ticks, tree = 3.26 MB, solutions = 0)
     24    26       45.0000   274                     45.0000   243231         
     25    27       45.2059   286                     45.0000   252157         
     27    29       45.0709   280                     45.0000   258251         
     28    30       45.0017   269                     45.0000   259365         
     30    32       45.0586   297                     45.0000   259843         
     33    33       52.0000   193                     45.0000   260212         
     39    39       52.0000   289                     45.0000   260627         
     45    43       52.0000   322                     45.0000   261013         
     49    47       52.0000   367                     45.0000   261613         
     53    51       52.0000   365                     45.0000   262026         
Elapsed time = 605.80 sec. (1005076.34 ticks, tree = 7.01 MB, solutions = 0)
     59    57       52.0000   307                     45.0000   262464         
     63    61       52.0000   323                     45.0000   262956         
     71    67       52.0000   291                     45.0000   263434         
     73    69       52.1618   247                     45.0000   281594         
     86    79       75.8235   156                     45.0000   282141         
    106    96      116.0000   182                     45.0000   282605         
    127   111      116.0000   139                     45.0000   282985         
    154   136      116.0000   123                     45.0000   283446         
    183   159      116.0000    75                     45.0000   284105         
    221   193      146.0000    49                     45.0000   284645         
Elapsed time = 628.37 sec. (1041658.58 ticks, tree = 28.55 MB, solutions = 0)
*   253   212      integral     0      199.0000       45.0000   284948   77.39%
    254   213       45.0000   310      199.0000       45.0000   296211   77.39%
    255   214       45.0000   315      199.0000       45.0000   299820   77.39%
    256   215       45.0000   311      199.0000       45.0000   301976   77.39%
    257   216       45.0000   278      199.0000       45.0000   306426   77.39%
    258   217       45.0000   290      199.0000       45.0000   309516   77.39%
    259   218       45.0000   315      199.0000       45.0000   310566   77.39%
    261   220       45.0131   260      199.0000       45.0000   313088   77.39%
    262   221       47.4118   298      199.0000       45.0000   337969   77.39%
    264   223       45.0882   273      199.0000       45.0000   338383   77.39%
Elapsed time = 702.49 sec. (1172022.53 ticks, tree = 32.94 MB, solutions = 1)
    268   227       52.0000   232      199.0000       45.0000   338826   77.39%
    270   229       45.1841   314      199.0000       45.0000   339242   77.39%
    273   232       66.2745   224      199.0000       45.0000   339961   77.39%
    277   236       45.3260   419      199.0000       45.0000   340867   77.39%
    280   239       45.3125   331      199.0000       45.0000   341204   77.39%
    282   241       45.4147   349      199.0000       45.0000   341614   77.39%
    284   243       45.3741   317      199.0000       45.0000   342033   77.39%
    288   247       46.0000   278      199.0000       45.0000   342488   77.39%
    299   253    infeasible            199.0000       45.0000   342864   77.39%
    313   267       88.0000   188      199.0000       45.0000   343281   77.39%
Elapsed time = 710.83 sec. (1184514.14 ticks, tree = 39.16 MB, solutions = 1)
    331   285       88.0000   185      199.0000       45.0000   343682   77.39%
    349   301       88.0000   211      199.0000       45.0000   344171   77.39%
    370   316      118.0000   141      199.0000       45.0000   344589   77.39%
    399   338      155.0000   105      199.0000       45.0000   344882   77.39%
    418   355    infeasible            199.0000       45.0000   345186   77.39%
    445   381      155.0000    37      199.0000       45.0000   345456   77.39%
*   470   298      integral     0      155.0000       45.0000   345622   70.97%
    471   298       70.0392   387      155.0000       45.0000   355567   70.97%
    472   299       45.0743   275      155.0000       45.0000   360294   70.97%
    475   300       45.3171   273      155.0000       45.0000   360613   70.97%
    480   305       58.0588   278      155.0000       45.0000   360923   70.97%
Elapsed time = 735.15 sec. (1222475.63 ticks, tree = 44.77 MB, solutions = 2)
    490   315       58.0588   294      155.0000       45.0000   361213   70.97%
    500   325       58.0588   303      155.0000       45.0000   361500   70.97%
    509   334       58.0588   361      155.0000       45.0000   361789   70.97%
    515   340       58.0588   358      155.0000       45.0000   362086   70.97%
    519   344       58.0588   376      155.0000       45.0000   362405   70.97%
    525   350       58.0588   380      155.0000       45.0000   362755   70.97%
    531   356       58.0588   358      155.0000       45.0000   363021   70.97%
    538   363       58.0588   370      155.0000       45.0000   363373   70.97%
    542   367       58.0588   399      155.0000       45.0000   363691   70.97%
    546   371       58.0588   410      155.0000       45.0000   364163   70.97%
Elapsed time = 742.76 sec. (1233412.72 ticks, tree = 54.28 MB, solutions = 2)
    551   376       58.0588   431      155.0000       45.0000   364601   70.97%
    554   379       58.0588   411      155.0000       45.0000   364944   70.97%
    560   385       58.0588   401      155.0000       45.0000   365323   70.97%
    561   386       58.0588   311      155.0000       45.0000   373145   70.97%
    563   388       58.0588   357      155.0000       45.0000   373882   70.97%
    564   389       58.0588   337      155.0000       45.0000   374741   70.97%
    565   390       58.0588   314      155.0000       45.0000   388937   70.97%
    566   391       58.0588   346      155.0000       45.0000   406047   70.97%
    567   392       58.0588   404      155.0000       45.0000   408350   70.97%
    568   393       58.0588   370      155.0000       45.0000   424373   70.97%
Elapsed time = 825.78 sec. (1368500.55 ticks, tree = 57.45 MB, solutions = 2)
    569   394       58.0588   395      155.0000       45.0000   426337   70.97%
    570   395       58.0588   379      155.0000       45.0000   429297   70.97%
    571   396       58.0588   354      155.0000       45.0000   445871   70.97%
    572   397       58.0588   395      155.0000       45.0000   450042   70.97%
    573   398       58.0588   393      155.0000       45.0000   453703   70.97%
    574   399       58.0588   369      155.0000       45.0000   473999   70.97%
    575   400       58.0588   395      155.0000       45.0000   474850   70.97%
    576   401       58.0588   383      155.0000       45.0000   490448   70.97%
    577   402       58.0588   423      155.0000       45.0000   535737   70.97%
    578   403       58.0588   496      155.0000       45.0000   556362   70.97%
Elapsed time = 1003.63 sec. (1650321.79 ticks, tree = 58.89 MB, solutions = 2)
    581   406       45.0000   292      155.0000       45.0000   562240   70.97%
    582   407       45.0000   278      155.0000       45.0000   566837   70.97%
    583   408       45.0000   248      155.0000       45.0000   685881   70.97%
    584   408       45.0000   258      155.0000       45.0000   686381   70.97%
    585   409       45.0000   245      155.0000       45.0000   687291   70.97%
    586   410       45.0000   309      155.0000       45.0000   692633   70.97%
    587   410       45.0000   334      155.0000       45.0000   706715   70.97%
    588   411       45.0000   302      155.0000       45.0000   711954   70.97%
    589   411       45.0000   301      155.0000       45.0000   712014   70.97%
    591   360       45.0000   341      155.0000       45.0000   712238   70.97%
Elapsed time = 1970.06 sec. (3100625.45 ticks, tree = 52.37 MB, solutions = 2)
    593   360       45.0000   317      155.0000       45.0000   720879   70.97%
    595   361       45.0000   314      155.0000       45.0000   720975   70.97%
    596   362       45.0000   272      155.0000       45.0000   726360   70.97%
    598   363       45.0000   254      155.0000       45.0000   732833   70.97%
    600   364       45.0000   250      155.0000       45.0000   733444   70.97%
    601   364       45.1231   248      155.0000       45.0000   736872   70.97%
    604   364       45.0000   253      155.0000       45.0000   737591   70.97%
    606   365       45.0000   266      155.0000       45.0000   740011   70.97%
    608   367       45.0268   264      155.0000       45.0000   741230   70.97%
    614   369       46.0000   265      155.0000       45.0000   741297   70.97%
Elapsed time = 2027.27 sec. (3196416.17 ticks, tree = 53.62 MB, solutions = 2)
    616   370       47.0000   253      155.0000       45.0000   747290   70.97%
    618   370       55.0000   416      155.0000       45.0000   753893   70.97%
    620   372       55.0000   399      155.0000       45.0000   753913   70.97%
    625   374       55.0000   299      155.0000       45.0000   754058   70.97%
    633   377       71.0000   220      155.0000       45.0000   754293   70.97%
    641   381       75.0000   258      155.0000       45.0000   754586   70.97%
    649   377       77.0000   296      155.0000       45.0000   754766   70.97%
    656   379       77.0000   262      155.0000       45.0000   755023   70.97%
    663   382       77.0000   240      155.0000       45.0000   755216   70.97%
    672   386       77.0000   242      155.0000       45.0000   755574   70.97%
Elapsed time = 2074.25 sec. (3265703.83 ticks, tree = 56.04 MB, solutions = 2)
    682   386       77.0000   246      155.0000       45.0000   755961   70.97%
    688   389       77.0000   275      155.0000       45.0000   756081   70.97%
    695   391       84.0588   248      155.0000       45.0000   758666   70.97%
    703   393       85.0000   188      155.0000       45.0000   758832   70.97%
    711   399       85.0000   188      155.0000       45.0000   760569   70.97%
    726   404      108.1471   155      155.0000       45.0000   762918   70.97%
    741   409      135.0000   109      155.0000       45.0000   763407   70.97%
    764   408       67.2255   253      155.0000       45.0000   763900   70.97%
    774   412       70.0000   252      155.0000       45.0000   764063   70.97%
    783   419       70.0000   238      155.0000       45.0000   764268   70.97%
Elapsed time = 2105.97 sec. (3309617.23 ticks, tree = 60.92 MB, solutions = 2)
    792   424       70.0000   270      155.0000       45.0000   764529   70.97%
    800   429       70.0000   286      155.0000       45.0000   764865   70.97%
    808   433       70.0000   268      155.0000       45.0000   765239   70.97%
    820   436       70.0000   258      155.0000       45.0000   765840   70.97%
    828   431       74.0294   258      155.0000       45.0000   766489   70.97%
    847   434       76.0000   242      155.0000       45.0000   766806   70.97%
    851   436       76.2059   292      155.0000       45.0000   775703   70.97%
    855   440       92.0000   223      155.0000       45.0000   776608   70.97%
    864   445       77.0000   225      155.0000       45.0000   777862   70.97%
    872   445       79.1912   225      155.0000       45.0000   786173   70.97%
Elapsed time = 2144.42 sec. (3362954.60 ticks, tree = 64.91 MB, solutions = 2)
    877   445       77.0000   182      155.0000       45.0000   789767   70.97%
    886   448       81.0000   189      155.0000       45.0000   790741   70.97%
    940   466      119.0000   153      155.0000       45.0000   791055   70.97%
    965   467       45.5874   273      155.0000       45.0000   795846   70.97%
    968   467       46.0000   293      155.0000       45.0000   797207   70.97%
    970   468       46.0000   287      155.0000       45.0000   800956   70.97%
    973   471       46.0000   272      155.0000       45.0000   801796   70.97%
    974   471       47.0784   277      155.0000       45.0000   805046   70.97%
    982   475       48.0000   284      155.0000       45.0000   810362   70.97%
    985   476       45.6963   254      155.0000       45.0000   822196   70.97%
Elapsed time = 2204.01 sec. (3462129.37 ticks, tree = 69.79 MB, solutions = 2)
    987   477       46.0000   255      155.0000       45.0000   825270   70.97%
    989   477       46.0000   253      155.0000       45.0000   830708   70.97%
    992   478       46.0659   228      155.0000       45.0000   834139   70.97%
    995   478       47.0000   315      155.0000       45.0000   834476   70.97%
   1002   481       47.0000   355      155.0000       45.0000   834760   70.97%
   1005   483       47.0000   286      155.0000       45.0000   836745   70.97%
   1006   484       47.0000   298      155.0000       45.0000   838577   70.97%
   1008   485       47.0000   297      155.0000       45.0000   839266   70.97%
   1012   486       47.0000   276      155.0000       45.0000   840657   70.97%
   1013   487       47.0000   280      155.0000       45.0000   842548   70.97%
Elapsed time = 2245.20 sec. (3533084.61 ticks, tree = 71.18 MB, solutions = 2)
   1015   489       47.0000   299      155.0000       45.0000   843862   70.97%
   1016   490       47.0000   272      155.0000       45.0000   845182   70.97%
   1018   491       47.0000   287      155.0000       45.0000   846023   70.97%
   1019   492       47.0000   294      155.0000       45.0000   849036   70.97%
   1021   493       47.0000   283      155.0000       45.0000   851364   70.97%
   1024   494       47.0000   371      155.0000       45.0000   851741   70.97%
   1027   496       47.0000   323      155.0000       45.0000   853601   70.97%
   1028   496       47.0616   349      155.0000       45.0000   858319   70.97%
   1031   497       48.0000   329      155.0000       45.0000   858968   70.97%
   1034   500       48.0000   285      155.0000       45.0000   860023   70.97%
Elapsed time = 2280.04 sec. (3595000.41 ticks, tree = 73.03 MB, solutions = 2)
   1035   501       48.0000   255      155.0000       45.0000   863994   70.97%
   1038   502       48.0000   317      155.0000       45.0000   866420   70.97%
   1039   503       48.0000   298      155.0000       45.0000   869073   70.97%
   1042   504       48.0000   344      155.0000       45.0000   869467   70.97%
   1046   505       48.0000   291      155.0000       45.0000   872457   70.97%
   1047   506       48.0000   331      155.0000       45.0000   878872   70.97%
   1051   508       48.0000   351      155.0000       45.0000   879007   70.97%
   1053   509       48.0000   356      155.0000       45.0000   879829   70.97%
   1056   508       53.0588   281      155.0000       45.0000   892119   70.97%
   1066   513       55.0000   245      155.0000       45.0000   892324   70.97%
Elapsed time = 2331.26 sec. (3680072.74 ticks, tree = 74.86 MB, solutions = 2)
   1067   514       55.0000   332      155.0000       45.0000   893643   70.97%
   1069   516       55.0000   261      155.0000       45.0000   905989   70.97%
   1072   518       55.0000   339      155.0000       45.0000   907303   70.97%
   1076   520       55.0000   268      155.0000       45.0000   907687   70.97%
   1080   522       55.0000   312      155.0000       45.0000   908598   70.97%
   1085   525       55.0000   255      155.0000       45.0000   915063   70.97%
   1087   526       55.0000   256      155.0000       45.0000   928948   70.97%
   1088   526      115.0000   312      155.0000       45.0000   942116   70.97%
   1092   528      115.0000   291      155.0000       45.0000   950501   70.97%
   1095   530      115.0000   292      155.0000       45.0000   950751   70.97%
Elapsed time = 2403.34 sec. (3790402.47 ticks, tree = 77.32 MB, solutions = 2)
   1101   533      115.0000   397      155.0000       45.0000   952350   70.97%
   1103   534      115.0000   380      155.0000       45.0000   952400   70.97%
   1106   536      144.0000   185      155.0000       45.0000   961131   70.97%
   1108   536      144.0000   236      155.0000       45.0000   963355   70.97%
   1110   536      144.0000   155      155.0000       45.0000   969024   70.97%
   1113   538      144.0000   258      155.0000       45.0000   971064   70.97%
   1118   540      144.0000   219      155.0000       45.0000   976032   70.97%
   1120   542      144.0000   190      155.0000       45.0000   978564   70.97%
   1122   543      144.0000   153      155.0000       45.0000   982657   70.97%
   1126   546      144.0000   221      155.0000       45.0000   983653   70.97%
Elapsed time = 2452.00 sec. (3857091.11 ticks, tree = 79.69 MB, solutions = 2)
   1134   548      144.0000   114      155.0000       45.0000   987606   70.97%
   1139   549      148.0000    68      155.0000       45.0000   999701   70.97%
   1163   555      149.0000    74      155.0000       45.0000  1000405   70.97%
   1173   550       45.0000   296      155.0000       45.0000  1007109   70.97%
   1176   551       45.0000   298      155.0000       45.0000  1007247   70.97%
   1177   551       45.0000   302      155.0000       45.0000  1010981   70.97%
   1179   552       45.0000   308      155.0000       45.0000  1012436   70.97%
   1180   553       45.0000   285      155.0000       45.0000  1019304   70.97%
   1182   553       45.0000   284      155.0000       45.0000  1019904   70.97%
   1183   554       45.0000   299      155.0000       45.0000  1022569   70.97%
Elapsed time = 2561.03 sec. (4042463.23 ticks, tree = 80.95 MB, solutions = 2)
   1185   555       45.0000   327      155.0000       45.0000  1023318   70.97%
   1186   556       45.0000   329      155.0000       45.0000  1032141   70.97%
   1188   558       45.0000   345      155.0000       45.0000  1032338   70.97%
   1190   560       45.0000   314      155.0000       45.0000  1038246   70.97%
   1191   561       45.0000   332      155.0000       45.0000  1040204   70.97%
   1192   561       45.0000   303      155.0000       45.0000  1042589   70.97%
   1193   562       45.0000   368      155.0000       45.0000  1047401   70.97%
   1195   563       45.0000   354      155.0000       45.0000  1067010   70.97%
   1197   564       45.0000   370      155.0000       45.0000  1074214   70.97%
   1198   563       45.0528   357      155.0000       45.0000  1085088   70.97%
Elapsed time = 2667.19 sec. (4229467.37 ticks, tree = 82.33 MB, solutions = 2)
   1201   563       46.0000   320      155.0000       45.0000  1085181   70.97%
   1202   564       46.0000   331      155.0000       45.0000  1100329   70.97%
   1204   565       46.0000   316      155.0000       45.0000  1106594   70.97%
   1205   566       46.0000   414      155.0000       45.0000  1116568   70.97%
   1207   566       46.0518   384      155.0000       45.0000  1130312   70.97%
   1211   568       47.0000   481      155.0000       45.0000  1131037   70.97%
   1213   569       47.0000   310      155.0000       45.0000  1150948   70.97%
   1214   569       47.0000   347      155.0000       45.0000  1171656   70.97%
   1216   570       47.0000   381      155.0000       45.0000  1172047   70.97%
   1217   571       47.0000   369      155.0000       45.0000  1179926   70.97%
Elapsed time = 2826.34 sec. (4488517.86 ticks, tree = 83.26 MB, solutions = 2)
   1219   573       47.0000   362      155.0000       45.0000  1180626   70.97%
   1220   573       47.0000   341      155.0000       45.0000  1184208   70.97%
   1222   575       47.0000   305      155.0000       45.0000  1194254   70.97%
   1223   575       47.0000   301      155.0000       45.0000  1195347   70.97%
   1224   576       47.0000   306      155.0000       45.0000  1196109   70.97%
   1225   577       47.0000   299      155.0000       45.0000  1197201   70.97%
   1227   578       47.0000   313      155.0000       45.0000  1197748   70.97%
   1229   579       47.0000   274      155.0000       45.0000  1202429   70.97%
   1231   580       47.0000   304      155.0000       45.0000  1203895   70.97%
   1233   581       47.0000   322      155.0000       45.0000  1205011   70.97%
Elapsed time = 2893.14 sec. (4600543.38 ticks, tree = 84.67 MB, solutions = 2)
   1234   581       47.0000   335      155.0000       45.0000  1209259   70.97%
   1236   582       47.0000   314      155.0000       45.0000  1215387   70.97%
   1240   585       47.0376   288      155.0000       45.0000  1221504   70.97%
   1244   587       48.0000   348      155.0000       45.0000  1222254   70.97%
   1246   588       48.0000   297      155.0000       45.0000  1231992   70.97%
   1247   589       48.0000   321      155.0000       45.0000  1233185   70.97%
   1251   592       48.0000   340      155.0000       45.0000  1233425   70.97%
   1253   594       48.0000   308      155.0000       45.0000  1241034   70.97%
   1254   595       48.0000   299      155.0000       45.0000  1242328   70.97%
   1259   599       48.0000   293      155.0000       45.0000  1251965   70.97%
Elapsed time = 2978.03 sec. (4742853.12 ticks, tree = 87.19 MB, solutions = 2)
   1260   600       48.0000   303      155.0000       45.0000  1253614   70.97%
   1261   600       48.3529   280      155.0000       45.0000  1259138   70.97%
   1268   606       49.0000   336      155.0000       45.0000  1259719   70.97%
   1269   606       49.0000   264      155.0000       45.0000  1263017   70.97%
   1274   608       49.0000   256      155.0000       45.0000  1264299   70.97%
   1276   608       49.0000   259      155.0000       45.0000  1265224   70.97%
   1283   611       49.0000   272      155.0000       45.0000  1267892   70.97%
   1286   614       49.0000   249      155.0000       45.0000  1270026   70.97%
   1288   614       49.0000   257      155.0000       45.0000  1272840   70.97%
   1297   616       49.0000   240      155.0000       45.0000  1274578   70.97%
Elapsed time = 3043.33 sec. (4839988.44 ticks, tree = 89.64 MB, solutions = 2)
   1343   621      106.0000   157      155.0000       45.0000  1275304   70.97%
   1385   641       47.1471   286      155.0000       45.0000  1298733   70.97%
   1387   643       48.0000   305      155.0000       45.0000  1300224   70.97%
   1389   645       48.0000   344      155.0000       45.0000  1300558   70.97%
   1395   651       48.0000   373      155.0000       45.0000  1317547   70.97%
   1397   653       48.0000   268      155.0000       45.0000  1325147   70.97%
   1398   654       48.0000   263      155.0000       45.0000  1334998   70.97%
   1400   656       48.0000   330      155.0000       45.0000  1336975   70.97%
   1401   657       48.0000   317      155.0000       45.0000  1348976   70.97%
   1403   659       48.0000   324      155.0000       45.0000  1368695   70.97%
Elapsed time = 3277.26 sec. (5235215.20 ticks, tree = 95.93 MB, solutions = 2)
   1404   660       48.0000   299      155.0000       45.0000  1384500   70.97%
   1405   661       48.0000   318      155.0000       45.0000  1398800   70.97%
   1406   662       48.0000   328      155.0000       45.0000  1433313   70.97%
   1407   663       48.0000   320      155.0000       45.0000  1461864   70.97%
   1408   664       48.0000   349      155.0000       45.0000  1483066   70.97%
   1410   666       48.0000   314      155.0000       45.0000  1498831   70.97%
   1411   667       48.0000   302      155.0000       45.0000  1518594   70.97%
   1412   668       48.0000   299      155.0000       45.0000  1530556   70.97%
   1413   669       48.0000   299      155.0000       45.0000  1551931   70.97%
   1414   670       48.0000   318      155.0000       45.0000  1568631   70.97%
Elapsed time = 3542.57 sec. (5673304.07 ticks, tree = 97.63 MB, solutions = 2)
   1415   671       48.0000   356      155.0000       45.0000  1569516   70.97%
   1416   672       48.0000   299      155.0000       45.0000  1583747   70.97%
   1417   673       48.0000   256      155.0000       45.0000  1599843   70.97%
   1419   675       48.0000   355      155.0000       45.0000  1601141   70.97%

Clique cuts applied:  9
Cover cuts applied:  12
Implied bound cuts applied:  5
Mixed integer rounding cuts applied:  30
Zero-half cuts applied:  24
Gomory fractional cuts applied:  1

Root node processing (before b&c):
  Real time             =  397.72 sec. (665815.21 ticks)
Sequential b&c:
  Real time             = 3202.30 sec. (5103661.97 ticks)
                          ------------
Total (root+branch&cut) = 3600.01 sec. (5769477.19 ticks)

Solution pool: 2 solutions saved.

MIP - Time limit exceeded, integer feasible:  Objective =  1.5500000000e+02
Current MIP best bound =  4.5000000000e+01 (gap = 110, 70.97%)
Solution time = 3600.01 sec.  Iterations = 1617068  Nodes = 1420 (675)
Deterministic time = 5769477.60 ticks  (1602.63 ticks/sec)

CPLEX> Incumbent solution
Variable Name           Solution Value
y                           155.000000
x69                           1.000000
x5846                         1.000000
x11598                        1.000000
x17404                        1.000000
x23120                        1.000000
x28952                        1.000000
x34730                        1.000000
x40462                        1.000000
x46272                        1.000000
x52001                        1.000000
x57816                        1.000000
x63570                        1.000000
x69367                        1.000000
x75130                        1.000000
x80930                        1.000000
x86703                        1.000000
x92425                        1.000000
x98250                        1.000000
x104013                       1.000000
x109773                       1.000000
x115525                       1.000000
x121318                       1.000000
x127145                       1.000000
x132881                       1.000000
x138644                       1.000000
x5169                         1.000000
x11021                        1.000000
x14973                        1.000000
x19229                        1.000000
x24853                        1.000000
x33745                        1.000000
x37697                        1.000000
x41345                        1.000000
x50997                        1.000000
x52821                        1.000000
x61941                        1.000000
x67413                        1.000000
x69389                        1.000000
x78205                        1.000000
x83677                        1.000000
x89909                        1.000000
x95305                        1.000000
x98877                        1.000000
x105945                       1.000000
x113317                       1.000000
x119017                       1.000000
x122893                       1.000000
x129733                       1.000000
x133305                       1.000000
x140069                       1.000000
x71594                        1.000000
x91355                        1.000000
x136880                       1.000000
x90446                        1.000000
x137871                       1.000000
x42644                        1.000000
x102534                       1.000000
x85815                        1.000000
x54960                        1.000000
x43029                        1.000000
x81638                        1.000000
x118271                       1.000000
x26770                        1.000000
x137959                       1.000000
x130285                       1.000000
x132567                       1.000000
x26852                        1.000000
x73441                        1.000000
x23054                        1.000000
x107339                       1.000000
x39244                        1.000000
x71167                        1.000000
x90928                        1.000000
x40999                        1.000000
x128628                       1.000000
x115861                       1.000000
x81890                        1.000000
x93063                        1.000000
x53240                        1.000000
x39333                        1.000000
x128787                       1.000000
x89040                        1.000000
x116631                       1.000000
x111920                       1.000000
x24293                        1.000000
x24446                        1.000000
x86843                        1.000000
x66096                        1.000000
x34329                        1.000000
x134270                       1.000000
x92321                        1.000000
x32891                        1.000000
x40264                        1.000000
x40037                        1.000000
x36770                        1.000000
x33353                        1.000000
x133143                       1.000000
x135348                       1.000000
x39211                        1.000000
x87095                        1.000000
u2                            3.000000
u3                            1.000000
u4                           48.000000
u6                            3.000000
u7                           50.000000
u8                            1.000000
u10                           1.000000
u11                           1.000000
u12                           2.000000
u13                           3.000000
u14                          49.000000
u15                          49.000000
u18                           2.000000
u19                           2.000000
u21                           3.000000
u23                           1.000000
u24                          50.000000
u25                           1.000000
u26                           1.000000
u27                           1.000000
u28                           4.000000
u31                           2.000000
u32                           6.000000
u35                           2.000000
u36                           4.000000
u37                          48.000000
u38                          50.000000
u39                          50.000000
u40                           1.000000
u41                           6.000000
u43                           2.000000
u44                           7.000000
u47                          50.000000
u48                           1.000000
u49                           1.000000
u50                           3.000000
u51                           2.000000
u52                          48.000000
u53                          48.000000
u54                          47.000000
u57                           5.000000
u59                          49.000000
u60                           1.000000
u61                           3.000000
u62                           5.000000
u65                          50.000000
u67                          49.000000
u68                           1.000000
u71                           2.000000
u75                           4.000000
All other variables in the range 1-142576 are 0.
CPLEX> 